<number of tasks>
20

<cycle time>
1000

<order strength>
0,5


<task times>
1 523
2 714
3 293
4 486
5 523
6 569
7 519
8 311
9 536
10 511
11 518
12 445
13 455
14 544
15 433
16 702
17 491
18 751
19 581
20 298

<precedence relations>
1,5
2,6
3,7
3,8
3,9
4,7
4,8
4,9
5,10
6,11
7,11
8,11
9,11
10,13
11,12
11,14
12,15
13,16
14,17
14,18
15,19
16,19
17,19
17,20
18,19

<end>
